c strEdges: 189  randomEdges: 441 
c degrees:  2  3 
c girth: 10 max: 8.032766  
c Hgirth mixed MAXCUT instance
c generated from an undirected graph
c to solve unweighted MaxCut
p cnf 140 1260
7 58 0
-7 -58 0
7 71 0
-7 -71 0
7 6 0
-7 -6 0
110 39 0
-110 -39 0
110 64 0
-110 -64 0
110 18 0
-110 -18 0
61 60 0
-61 -60 0
61 128 0
-61 -128 0
139 70 0
-139 -70 0
139 89 0
-139 -89 0
139 15 0
-139 -15 0
126 26 0
-126 -26 0
126 43 0
-126 -43 0
101 97 0
-101 -97 0
101 25 0
-101 -25 0
36 50 0
-36 -50 0
36 55 0
-36 -55 0
36 106 0
-36 -106 0
132 64 0
-132 -64 0
132 98 0
-132 -98 0
132 116 0
-132 -116 0
72 113 0
-72 -113 0
72 67 0
-72 -67 0
72 18 0
-72 -18 0
80 59 0
-80 -59 0
80 119 0
-80 -119 0
80 69 0
-80 -69 0
5 67 0
-5 -67 0
5 44 0
-5 -44 0
87 52 0
-87 -52 0
87 62 0
-87 -62 0
87 6 0
-87 -6 0
96 115 0
-96 -115 0
96 113 0
-96 -113 0
96 32 0
-96 -32 0
121 107 0
-121 -107 0
121 67 0
-121 -67 0
121 120 0
-121 -120 0
108 69 0
-108 -69 0
108 135 0
-108 -135 0
66 100 0
-66 -100 0
66 20 0
-66 -20 0
66 90 0
-66 -90 0
49 32 0
-49 -32 0
49 92 0
-49 -92 0
49 136 0
-49 -136 0
63 123 0
-63 -123 0
63 70 0
-63 -70 0
63 50 0
-63 -50 0
81 120 0
-81 -120 0
81 105 0
-81 -105 0
81 97 0
-81 -97 0
54 71 0
-54 -71 0
54 35 0
-54 -35 0
54 68 0
-54 -68 0
30 17 0
-30 -17 0
30 2 0
-30 -2 0
30 47 0
-30 -47 0
34 117 0
-34 -117 0
34 98 0
-34 -98 0
34 83 0
-34 -83 0
9 128 0
-9 -128 0
9 51 0
-9 -51 0
9 79 0
-9 -79 0
130 2 0
-130 -2 0
130 79 0
-130 -79 0
130 3 0
-130 -3 0
29 106 0
-29 -106 0
29 44 0
-29 -44 0
29 47 0
-29 -47 0
46 12 0
-46 -12 0
46 15 0
-46 -15 0
138 79 0
-138 -79 0
138 115 0
-138 -115 0
4 55 0
-4 -55 0
4 58 0
-4 -58 0
4 20 0
-4 -20 0
37 119 0
-37 -119 0
37 97 0
-37 -97 0
37 116 0
-37 -116 0
48 25 0
-48 -25 0
48 78 0
-48 -78 0
48 56 0
-48 -56 0
33 47 0
-33 -47 0
33 31 0
-33 -31 0
33 59 0
-33 -59 0
13 89 0
-13 -89 0
13 59 0
-13 -59 0
28 31 0
-28 -31 0
28 114 0
-28 -114 0
28 100 0
-28 -100 0
104 135 0
-104 -135 0
104 100 0
-104 -100 0
104 60 0
-104 -60 0
103 3 0
-103 -3 0
103 105 0
-103 -105 0
103 74 0
-103 -74 0
99 38 0
-99 -38 0
99 12 0
-99 -12 0
99 27 0
-99 -27 0
122 114 0
-122 -114 0
122 82 0
-122 -82 0
122 38 0
-122 -38 0
109 51 0
-109 -51 0
109 50 0
-109 -50 0
109 94 0
-109 -94 0
8 24 0
-8 -24 0
8 70 0
-8 -70 0
8 136 0
-8 -136 0
133 35 0
-133 -35 0
133 24 0
-133 -24 0
127 140 0
-127 -140 0
127 111 0
-127 -111 0
127 32 0
-127 -32 0
22 116 0
-22 -116 0
22 137 0
-22 -137 0
22 140 0
-22 -140 0
75 105 0
-75 -105 0
75 123 0
-75 -123 0
129 86 0
-129 -86 0
129 26 0
-129 -26 0
129 35 0
-129 -35 0
41 15 0
-41 -15 0
41 117 0
-41 -117 0
85 43 0
-85 -43 0
85 113 0
-85 -113 0
1 94 0
-1 -94 0
1 62 0
-1 -62 0
1 114 0
-1 -114 0
14 90 0
-14 -90 0
14 56 0
-14 -56 0
102 68 0
-102 -68 0
102 93 0
-102 -93 0
45 6 0
-45 -6 0
45 117 0
-45 -117 0
45 111 0
-45 -111 0
125 98 0
-125 -98 0
125 112 0
-125 -112 0
57 44 0
-57 -44 0
57 112 0
-57 -112 0
57 60 0
-57 -60 0
76 111 0
-76 -111 0
76 10 0
-76 -10 0
134 93 0
-134 -93 0
134 128 0
-134 -128 0
134 10 0
-134 -10 0
21 112 0
-21 -112 0
21 25 0
-21 -25 0
21 24 0
-21 -24 0
95 62 0
-95 -62 0
95 43 0
-95 -43 0
53 82 0
-53 -82 0
53 83 0
-53 -83 0
53 107 0
-53 -107 0
131 10 0
-131 -10 0
131 120 0
-131 -120 0
16 91 0
-16 -91 0
16 93 0
-16 -93 0
16 78 0
-16 -78 0
73 19 0
-73 -19 0
73 58 0
-73 -58 0
73 74 0
-73 -74 0
65 56 0
-65 -56 0
65 52 0
-65 -52 0
40 74 0
-40 -74 0
40 64 0
-40 -64 0
124 136 0
-124 -136 0
124 90 0
-124 -90 0
124 39 0
-124 -39 0
77 137 0
-77 -137 0
77 26 0
-77 -26 0
77 106 0
-77 -106 0
11 78 0
-11 -78 0
11 17 0
-11 -17 0
88 18 0
-88 -18 0
88 68 0
-88 -68 0
88 2 0
-88 -2 0
23 83 0
-23 -83 0
23 86 0
-23 -86 0
23 135 0
-23 -135 0
118 92 0
-118 -92 0
118 19 0
-118 -19 0
118 31 0
-118 -31 0
42 27 0
-42 -27 0
42 91 0
-42 -91 0
42 69 0
-42 -69 0
84 20 0
-84 -20 0
84 115 0
-84 -115 0
84 12 0
-84 -12 0
28 41 0
-28 -41 0
117 82 0
-117 -82 0
102 137 0
-102 -137 0
124 3 0
-124 -3 0
88 56 0
-88 -56 0
57 6 0
-57 -6 0
89 56 0
-89 -56 0
23 69 0
-23 -69 0
117 15 0
-117 -15 0
130 65 0
-130 -65 0
48 77 0
-48 -77 0
4 97 0
-4 -97 0
110 35 0
-110 -35 0
4 73 0
-4 -73 0
87 44 0
-87 -44 0
103 137 0
-103 -137 0
11 59 0
-11 -59 0
63 59 0
-63 -59 0
67 32 0
-67 -32 0
86 98 0
-86 -98 0
22 114 0
-22 -114 0
133 47 0
-133 -47 0
71 116 0
-71 -116 0
88 70 0
-88 -70 0
5 130 0
-5 -130 0
9 70 0
-9 -70 0
61 118 0
-61 -118 0
97 17 0
-97 -17 0
1 89 0
-1 -89 0
89 83 0
-89 -83 0
26 18 0
-26 -18 0
84 6 0
-84 -6 0
107 31 0
-107 -31 0
101 42 0
-101 -42 0
109 3 0
-109 -3 0
98 111 0
-98 -111 0
125 100 0
-125 -100 0
84 78 0
-84 -78 0
6 74 0
-6 -74 0
3 6 0
-3 -6 0
49 46 0
-49 -46 0
46 100 0
-46 -100 0
107 44 0
-107 -44 0
23 78 0
-23 -78 0
80 62 0
-80 -62 0
28 76 0
-28 -76 0
48 68 0
-48 -68 0
60 68 0
-60 -68 0
52 117 0
-52 -117 0
46 107 0
-46 -107 0
126 46 0
-126 -46 0
85 55 0
-85 -55 0
49 68 0
-49 -68 0
121 40 0
-121 -40 0
42 71 0
-42 -71 0
33 1 0
-33 -1 0
63 25 0
-63 -25 0
87 56 0
-87 -56 0
14 69 0
-14 -69 0
5 90 0
-5 -90 0
50 112 0
-50 -112 0
122 52 0
-122 -52 0
139 30 0
-139 -30 0
30 32 0
-30 -32 0
49 10 0
-49 -10 0
30 67 0
-30 -67 0
22 93 0
-22 -93 0
101 2 0
-101 -2 0
33 128 0
-33 -128 0
127 25 0
-127 -25 0
47 105 0
-47 -105 0
48 116 0
-48 -116 0
126 9 0
-126 -9 0
127 67 0
-127 -67 0
7 98 0
-7 -98 0
28 47 0
-28 -47 0
87 91 0
-87 -91 0
132 118 0
-132 -118 0
85 137 0
-85 -137 0
17 112 0
-17 -112 0
41 128 0
-41 -128 0
2 20 0
-2 -20 0
72 12 0
-72 -12 0
67 105 0
-67 -105 0
14 52 0
-14 -52 0
105 62 0
-105 -62 0
122 1 0
-122 -1 0
104 129 0
-104 -129 0
134 31 0
-134 -31 0
25 114 0
-25 -114 0
7 79 0
-7 -79 0
129 21 0
-129 -21 0
79 89 0
-79 -89 0
138 53 0
-138 -53 0
87 42 0
-87 -42 0
96 55 0
-96 -55 0
76 17 0
-76 -17 0
99 44 0
-99 -44 0
45 73 0
-45 -73 0
14 77 0
-14 -77 0
103 52 0
-103 -52 0
97 51 0
-97 -51 0
113 68 0
-113 -68 0
72 16 0
-72 -16 0
72 53 0
-72 -53 0
57 100 0
-57 -100 0
95 131 0
-95 -131 0
80 127 0
-80 -127 0
39 59 0
-39 -59 0
69 105 0
-69 -105 0
122 31 0
-122 -31 0
134 42 0
-134 -42 0
22 120 0
-22 -120 0
124 94 0
-124 -94 0
14 112 0
-14 -112 0
121 130 0
-121 -130 0
61 52 0
-61 -52 0
38 82 0
-38 -82 0
132 104 0
-132 -104 0
13 86 0
-13 -86 0
1 128 0
-1 -128 0
138 10 0
-138 -10 0
26 97 0
-26 -97 0
12 47 0
-12 -47 0
121 32 0
-121 -32 0
14 11 0
-14 -11 0
100 27 0
-100 -27 0
138 58 0
-138 -58 0
61 111 0
-61 -111 0
77 92 0
-77 -92 0
29 90 0
-29 -90 0
105 94 0
-105 -94 0
96 56 0
-96 -56 0
33 13 0
-33 -13 0
63 34 0
-63 -34 0
57 50 0
-57 -50 0
100 119 0
-100 -119 0
85 67 0
-85 -67 0
95 23 0
-95 -23 0
95 93 0
-95 -93 0
71 135 0
-71 -135 0
109 16 0
-109 -16 0
126 129 0
-126 -129 0
72 98 0
-72 -98 0
45 32 0
-45 -32 0
14 59 0
-14 -59 0
30 136 0
-30 -136 0
53 6 0
-53 -6 0
64 116 0
-64 -116 0
70 10 0
-70 -10 0
101 127 0
-101 -127 0
110 29 0
-110 -29 0
123 55 0
-123 -55 0
56 92 0
-56 -92 0
70 123 0
-70 -123 0
30 105 0
-30 -105 0
1 100 0
-1 -100 0
132 9 0
-132 -9 0
122 62 0
-122 -62 0
86 15 0
-86 -15 0
45 62 0
-45 -62 0
127 71 0
-127 -71 0
118 120 0
-118 -120 0
5 9 0
-5 -9 0
79 31 0
-79 -31 0
97 18 0
-97 -18 0
56 83 0
-56 -83 0
129 3 0
-129 -3 0
106 140 0
-106 -140 0
7 95 0
-7 -95 0
9 77 0
-9 -77 0
10 83 0
-10 -83 0
34 29 0
-34 -29 0
40 39 0
-40 -39 0
71 24 0
-71 -24 0
121 37 0
-121 -37 0
61 93 0
-61 -93 0
126 112 0
-126 -112 0
30 97 0
-30 -97 0
122 136 0
-122 -136 0
73 25 0
-73 -25 0
48 136 0
-48 -136 0
121 34 0
-121 -34 0
74 83 0
-74 -83 0
45 2 0
-45 -2 0
28 40 0
-28 -40 0
87 109 0
-87 -109 0
14 17 0
-14 -17 0
95 74 0
-95 -74 0
6 62 0
-6 -62 0
81 4 0
-81 -4 0
126 121 0
-126 -121 0
9 134 0
-9 -134 0
102 55 0
-102 -55 0
33 86 0
-33 -86 0
109 14 0
-109 -14 0
37 23 0
-37 -23 0
119 47 0
-119 -47 0
138 52 0
-138 -52 0
136 78 0
-136 -78 0
66 59 0
-66 -59 0
63 48 0
-63 -48 0
33 134 0
-33 -134 0
54 27 0
-54 -27 0
72 2 0
-72 -2 0
79 78 0
-79 -78 0
76 70 0
-76 -70 0
24 19 0
-24 -19 0
32 89 0
-32 -89 0
61 38 0
-61 -38 0
70 128 0
-70 -128 0
45 55 0
-45 -55 0
103 95 0
-103 -95 0
30 90 0
-30 -90 0
12 38 0
-12 -38 0
36 27 0
-36 -27 0
26 105 0
-26 -105 0
106 27 0
-106 -27 0
98 56 0
-98 -56 0
75 68 0
-75 -68 0
122 134 0
-122 -134 0
22 15 0
-22 -15 0
139 27 0
-139 -27 0
103 19 0
-103 -19 0
112 20 0
-112 -20 0
139 94 0
-139 -94 0
57 70 0
-57 -70 0
121 10 0
-121 -10 0
66 57 0
-66 -57 0
54 34 0
-54 -34 0
41 134 0
-41 -134 0
15 83 0
-15 -83 0
16 20 0
-16 -20 0
11 25 0
-11 -25 0
125 25 0
-125 -25 0
9 16 0
-9 -16 0
17 47 0
-17 -47 0
40 38 0
-40 -38 0
115 114 0
-115 -114 0
129 56 0
-129 -56 0
66 92 0
-66 -92 0
24 112 0
-24 -112 0
72 31 0
-72 -31 0
7 70 0
-7 -70 0
73 65 0
-73 -65 0
108 19 0
-108 -19 0
128 3 0
-128 -3 0
1 59 0
-1 -59 0
134 27 0
-134 -27 0
53 62 0
-53 -62 0
76 64 0
-76 -64 0
14 65 0
-14 -65 0
60 10 0
-60 -10 0
139 55 0
-139 -55 0
8 40 0
-8 -40 0
14 124 0
-14 -124 0
84 15 0
-84 -15 0
7 108 0
-7 -108 0
19 83 0
-19 -83 0
108 66 0
-108 -66 0
45 70 0
-45 -70 0
57 140 0
-57 -140 0
122 47 0
-122 -47 0
101 3 0
-101 -3 0
125 107 0
-125 -107 0
109 133 0
-109 -133 0
6 83 0
-6 -83 0
37 64 0
-37 -64 0
66 74 0
-66 -74 0
36 109 0
-36 -109 0
108 51 0
-108 -51 0
7 73 0
-7 -73 0
5 120 0
-5 -120 0
63 38 0
-63 -38 0
7 37 0
-7 -37 0
85 15 0
-85 -15 0
121 50 0
-121 -50 0
130 40 0
-130 -40 0
7 46 0
-7 -46 0
44 92 0
-44 -92 0
107 100 0
-107 -100 0
103 11 0
-103 -11 0
76 53 0
-76 -53 0
85 111 0
-85 -111 0
123 24 0
-123 -24 0
66 123 0
-66 -123 0
1 12 0
-1 -12 0
138 13 0
-138 -13 0
104 38 0
-104 -38 0
63 95 0
-63 -95 0
135 93 0
-135 -93 0
37 120 0
-37 -120 0
99 26 0
-99 -26 0
59 123 0
-59 -123 0
96 14 0
-96 -14 0
37 22 0
-37 -22 0
85 131 0
-85 -131 0
45 57 0
-45 -57 0
41 82 0
-41 -82 0
123 90 0
-123 -90 0
121 43 0
-121 -43 0
51 62 0
-51 -62 0
69 89 0
-69 -89 0
16 90 0
-16 -90 0
48 74 0
-48 -74 0
118 47 0
-118 -47 0
70 59 0
-70 -59 0
91 19 0
-91 -19 0
85 69 0
-85 -69 0
110 100 0
-110 -100 0
65 15 0
-65 -15 0
99 67 0
-99 -67 0
121 93 0
-121 -93 0
122 105 0
-122 -105 0
41 51 0
-41 -51 0
130 106 0
-130 -106 0
131 15 0
-131 -15 0
35 140 0
-35 -140 0
107 82 0
-107 -82 0
11 89 0
-11 -89 0
45 128 0
-45 -128 0
74 92 0
-74 -92 0
80 100 0
-80 -100 0
133 69 0
-133 -69 0
85 16 0
-85 -16 0
54 135 0
-54 -135 0
24 140 0
-24 -140 0
132 119 0
-132 -119 0
1 14 0
-1 -14 0
80 12 0
-80 -12 0
12 3 0
-12 -3 0
88 107 0
-88 -107 0
103 59 0
-103 -59 0
2 47 0
-2 -47 0
110 132 0
-110 -132 0
139 35 0
-139 -35 0
52 51 0
-52 -51 0
64 69 0
-64 -69 0
22 84 0
-22 -84 0
42 97 0
-42 -97 0
89 98 0
-89 -98 0
66 62 0
-66 -62 0
29 6 0
-29 -6 0
57 15 0
-57 -15 0
86 78 0
-86 -78 0
72 10 0
-72 -10 0
125 97 0
-125 -97 0
16 24 0
-16 -24 0
129 41 0
-129 -41 0
63 30 0
-63 -30 0
5 57 0
-5 -57 0
122 92 0
-122 -92 0
85 71 0
-85 -71 0
60 91 0
-60 -91 0
103 14 0
-103 -14 0
53 120 0
-53 -120 0
22 41 0
-22 -41 0
81 100 0
-81 -100 0
88 27 0
-88 -27 0
18 20 0
-18 -20 0
69 91 0
-69 -91 0
135 116 0
-135 -116 0
61 66 0
-61 -66 0
9 29 0
-9 -29 0
125 76 0
-125 -76 0
104 70 0
-104 -70 0
125 79 0
-125 -79 0
54 106 0
-54 -106 0
9 104 0
-9 -104 0
76 52 0
-76 -52 0
128 62 0
-128 -62 0
11 106 0
-11 -106 0
47 43 0
-47 -43 0
121 12 0
-121 -12 0
36 87 0
-36 -87 0
58 59 0
-58 -59 0
100 10 0
-100 -10 0
76 89 0
-76 -89 0
130 27 0
-130 -27 0
63 99 0
-63 -99 0
60 62 0
-60 -62 0
113 107 0
-113 -107 0
105 92 0
-105 -92 0
29 21 0
-29 -21 0
34 16 0
-34 -16 0
48 27 0
-48 -27 0
103 16 0
-103 -16 0
9 74 0
-9 -74 0
110 27 0
-110 -27 0
5 53 0
-5 -53 0
39 3 0
-39 -3 0
120 24 0
-120 -24 0
4 12 0
-4 -12 0
16 88 0
-16 -88 0
12 20 0
-12 -20 0
130 10 0
-130 -10 0
34 130 0
-34 -130 0
102 17 0
-102 -17 0
54 82 0
-54 -82 0
102 136 0
-102 -136 0
42 93 0
-42 -93 0
59 3 0
-59 -3 0
30 31 0
-30 -31 0
51 136 0
-51 -136 0
66 130 0
-66 -130 0
57 11 0
-57 -11 0
33 6 0
-33 -6 0
66 23 0
-66 -23 0
49 119 0
-49 -119 0
34 64 0
-34 -64 0
34 50 0
-34 -50 0
126 91 0
-126 -91 0
7 51 0
-7 -51 0
50 68 0
-50 -68 0
72 8 0
-72 -8 0
127 118 0
-127 -118 0
61 78 0
-61 -78 0
58 44 0
-58 -44 0
113 83 0
-113 -83 0
117 140 0
-117 -140 0
41 12 0
-41 -12 0
2 62 0
-2 -62 0
9 1 0
-9 -1 0
59 43 0
-59 -43 0
98 18 0
-98 -18 0
10 136 0
-10 -136 0
1 68 0
-1 -68 0
59 107 0
-59 -107 0
72 86 0
-72 -86 0
87 12 0
-87 -12 0
109 127 0
-109 -127 0
60 94 0
-60 -94 0
23 24 0
-23 -24 0
126 29 0
-126 -29 0
60 105 0
-60 -105 0
132 131 0
-132 -131 0
133 117 0
-133 -117 0
2 43 0
-2 -43 0
46 125 0
-46 -125 0
5 89 0
-5 -89 0
139 138 0
-139 -138 0
